words_hard_train/5431.qaiger
aag 122 16 0 1 106
2
4
8
16
18
22
36
68
76
104
138
148
170
184
206
222
245
6 3 5
10 7 8
12 6 9
14 11 13
20 17 19
24 21 22
26 20 23
28 25 27
30 16 18
32 24 31
34 29 33
38 27 36
40 26 37
42 39 41
44 35 42
46 34 43
48 45 47
50 31 21
52 50 17
54 28 51
56 55 33
58 52 57
60 49 59
62 48 58
64 61 63
66 14 64
70 13 68
72 12 69
74 71 73
78 41 76
80 40 77
82 79 81
84 82 47
86 83 46
88 85 87
90 89 63
92 88 62
94 91 93
96 74 94
98 67 97
100 53 56
102 101 59
106 105 16
108 3 18
110 106 109
112 2 19
114 111 113
116 2 4
118 117 7
120 114 119
122 102 121
124 115 118
126 123 125
128 15 65
130 127 129
132 98 131
134 75 95
136 133 135
140 73 138
142 72 139
144 141 143
146 93 87
150 81 148
152 80 149
154 151 153
156 146 154
158 147 155
160 157 159
162 145 161
164 136 163
166 144 160
168 165 167
172 153 170
174 152 171
176 173 175
178 159 177
180 158 176
182 179 181
186 143 184
188 142 185
190 187 189
192 182 191
194 169 193
196 183 190
198 195 197
200 155 177
202 92 200
204 198 203
208 174 207
210 175 206
212 209 211
214 86 200
216 212 214
218 213 215
220 217 219
224 188 223
226 189 222
228 225 227
230 220 229
232 204 231
234 199 202
236 230 234
238 233 237
240 221 228
242 240 235
244 238 243
i0 2 y1[1]
i1 2 y1[2]
i2 2 y1[3]
i3 1 x1[0]
i4 1 x1[1]
i5 1 x1[2]
i6 1 x1[3]
i7 2 y1[4]
i8 1 x1[4]
i9 2 y1[0]
i10 2 y1[5]
i11 1 x1[5]
i12 1 x1[6]
i13 2 y1[6]
i14 1 x1[7]
i15 2 y1[7]
o0 bv[0]
c
simplified
  >
    subtract
      invert
        1
      1 x1
    subtract
      1
      2 y1
