words_hard_train/5431.qaiger.qdimacs
p cnf 122 319
a 38 103 8 9 74 11 18 85 0
e 1 2 3 4 5 6 7 10 12 13 14 15 16 17 19 20 21 22 23 24 25 26 27 28 29 30 31 32 33 34 35 36 37 39 40 41 42 43 44 45 46 47 48 49 50 51 52 53 54 55 56 57 58 59 60 61 62 63 64 65 66 67 68 69 70 71 72 73 75 76 77 78 79 80 81 82 83 84 86 87 88 89 90 91 92 93 94 95 96 97 98 99 100 101 102 104 105 106 107 108 109 110 111 112 113 114 115 116 117 118 119 120 121 122 0
1 2 3 0
-1 -3 0
-2 -3 0
3 -4 5 0
-3 -5 0
4 -5 0
-3 4 6 0
3 -6 0
-4 -6 0
5 6 7 0
-5 -7 0
-6 -7 0
8 9 10 0
-8 -10 0
-9 -10 0
10 -11 12 0
-10 -12 0
11 -12 0
-10 11 13 0
10 -13 0
-11 -13 0
12 13 14 0
-12 -14 0
-13 -14 0
-8 -9 15 0
8 -15 0
9 -15 0
-12 15 16 0
12 -16 0
-15 -16 0
14 16 17 0
-14 -17 0
-16 -17 0
13 -18 19 0
-13 -19 0
18 -19 0
-13 18 20 0
13 -20 0
-18 -20 0
19 20 21 0
-19 -21 0
-20 -21 0
17 -21 22 0
-17 -22 0
21 -22 0
-17 21 23 0
17 -23 0
-21 -23 0
22 23 24 0
-22 -24 0
-23 -24 0
15 10 25 0
-15 -25 0
-10 -25 0
-25 8 26 0
25 -26 0
-8 -26 0
-14 25 27 0
14 -27 0
-25 -27 0
27 16 28 0
-27 -28 0
-16 -28 0
-26 28 29 0
26 -29 0
-28 -29 0
24 29 30 0
-24 -30 0
-29 -30 0
-24 -29 31 0
24 -31 0
29 -31 0
30 31 32 0
-30 -32 0
-31 -32 0
-7 -32 33 0
7 -33 0
32 -33 0
6 -34 35 0
-6 -35 0
34 -35 0
-6 34 36 0
6 -36 0
-34 -36 0
35 36 37 0
-35 -37 0
-36 -37 0
20 -38 39 0
-20 -39 0
38 -39 0
-20 38 40 0
20 -40 0
-38 -40 0
39 40 41 0
-39 -41 0
-40 -41 0
-41 23 42 0
41 -42 0
-23 -42 0
41 -23 43 0
-41 -43 0
23 -43 0
42 43 44 0
-42 -44 0
-43 -44 0
44 31 45 0
-44 -45 0
-31 -45 0
-44 -31 46 0
44 -46 0
31 -46 0
45 46 47 0
-45 -47 0
-46 -47 0
-37 -47 48 0
37 -48 0
47 -48 0
33 48 49 0
-33 -49 0
-48 -49 0
26 -28 50 0
-26 -50 0
28 -50 0
50 29 51 0
-50 -51 0
-29 -51 0
52 -8 53 0
-52 -53 0
8 -53 0
1 -9 54 0
-1 -54 0
9 -54 0
-53 54 55 0
53 -55 0
-54 -55 0
-1 9 56 0
1 -56 0
-9 -56 0
55 56 57 0
-55 -57 0
-56 -57 0
-1 -2 58 0
1 -58 0
2 -58 0
58 3 59 0
-58 -59 0
-3 -59 0
-57 59 60 0
57 -60 0
-59 -60 0
-51 60 61 0
51 -61 0
-60 -61 0
57 -59 62 0
-57 -62 0
59 -62 0
61 62 63 0
-61 -63 0
-62 -63 0
7 32 64 0
-7 -64 0
-32 -64 0
63 64 65 0
-63 -65 0
-64 -65 0
-49 65 66 0
49 -66 0
-65 -66 0
37 47 67 0
-37 -67 0
-47 -67 0
66 67 68 0
-66 -68 0
-67 -68 0
36 -69 70 0
-36 -70 0
69 -70 0
-36 69 71 0
36 -71 0
-69 -71 0
70 71 72 0
-70 -72 0
-71 -72 0
46 43 73 0
-46 -73 0
-43 -73 0
40 -74 75 0
-40 -75 0
74 -75 0
-40 74 76 0
40 -76 0
-74 -76 0
75 76 77 0
-75 -77 0
-76 -77 0
-73 -77 78 0
73 -78 0
77 -78 0
73 77 79 0
-73 -79 0
-77 -79 0
78 79 80 0
-78 -80 0
-79 -80 0
72 80 81 0
-72 -81 0
-80 -81 0
-68 81 82 0
68 -82 0
-81 -82 0
-72 -80 83 0
72 -83 0
80 -83 0
82 83 84 0
-82 -84 0
-83 -84 0
76 -85 86 0
-76 -86 0
85 -86 0
-76 85 87 0
76 -87 0
-85 -87 0
86 87 88 0
-86 -88 0
-87 -88 0
79 88 89 0
-79 -89 0
-88 -89 0
-79 -88 90 0
79 -90 0
88 -90 0
89 90 91 0
-89 -91 0
-90 -91 0
71 -92 93 0
-71 -93 0
92 -93 0
-71 92 94 0
71 -94 0
-92 -94 0
93 94 95 0
-93 -95 0
-94 -95 0
-91 95 96 0
91 -96 0
-95 -96 0
84 96 97 0
-84 -97 0
-96 -97 0
91 -95 98 0
-91 -98 0
95 -98 0
97 98 99 0
-97 -99 0
-98 -99 0
77 88 100 0
-77 -100 0
-88 -100 0
-46 -100 101 0
46 -101 0
100 -101 0
-99 101 102 0
99 -102 0
-101 -102 0
-87 103 104 0
87 -104 0
-103 -104 0
87 -103 105 0
-87 -105 0
103 -105 0
104 105 106 0
-104 -106 0
-105 -106 0
-43 -100 107 0
43 -107 0
100 -107 0
-106 -107 108 0
106 -108 0
107 -108 0
106 107 109 0
-106 -109 0
-107 -109 0
108 109 110 0
-108 -110 0
-109 -110 0
-94 111 112 0
94 -112 0
-111 -112 0
94 -111 113 0
-94 -113 0
111 -113 0
112 113 114 0
-112 -114 0
-113 -114 0
-110 114 115 0
110 -115 0
-114 -115 0
-102 115 116 0
102 -116 0
-115 -116 0
99 -101 117 0
-99 -117 0
101 -117 0
-115 -117 118 0
115 -118 0
117 -118 0
116 118 119 0
-116 -119 0
-118 -119 0
110 -114 120 0
-110 -120 0
114 -120 0
-120 117 121 0
120 -121 0
-117 -121 0
-119 121 122 0
119 -122 0
-121 -122 0
-122 0
